decision_x1=[0,7];
decision_x2=[0,7];
decision_x3=[0,7];
decision_x4=[0,7];
decision_x5=[0,7];
decision_x6=[0,7];
decision_x7=[0,7];
decision_x8=[0,7];
decision_x9=[0,7];
decision_x10=[0,7];
decision_x11=[0,7];
decision_x12=[0,7];
decision_x13=[0,7];
decision_x14=[0,7];
decision_x15=[0,7];
decision_x16=[0,7];
decision_x17=[0,7];
decision_x18=[0,7];
decision_x19=[0,7];
decision_x20=[0,7];
random_y1=[0,7];
random_y2=[0,7];
random_y3=[0,7];
random_y4=[0,7];
random_y5=[0,7];
random_y6=[0,7];
random_y7=[0,7];
random_y8=[0,7];
random_y9=[0,7];
constraint_x2_x1=[
0,0,5.3|
0,1,9.7|
0,2,2.9|
0,3,5.4|
0,4,0.25|
0,5,9.8|
0,6,5.7|
0,7,4.3|
1,0,4|
1,1,0.93|
1,2,9.3|
1,3,9.8|
1,4,5.1|
1,5,4.3|
1,6,9.4|
1,7,7.5|
2,0,7.3|
2,1,8.5|
2,2,7.9|
2,3,6.7|
2,4,0.7|
2,5,4.2|
2,6,3.3|
2,7,8.8|
3,0,4.1|
3,1,4|
3,2,0.27|
3,3,6.7|
3,4,1.4|
3,5,6.7|
3,6,8.5|
3,7,6.2|
4,0,3.8|
4,1,3.8|
4,2,9.5|
4,3,3.9|
4,4,9.3|
4,5,1.2|
4,6,7|
4,7,9.3|
5,0,8.7|
5,1,1.3|
5,2,9.1|
5,3,6.2|
5,4,7.8|
5,5,7|
5,6,3.7|
5,7,8.5|
6,0,4.9|
6,1,7.4|
6,2,9.8|
6,3,7.8|
6,4,8.1|
6,5,1.9|
6,6,9.7|
6,7,4.6|
7,0,5.1|
7,1,0.81|
7,2,4.8|
7,3,1.4|
7,4,2.8|
7,5,4.2|
7,6,8.9|
7,7,7.1|
];
constraint_x3_x2=[
0,0,2.2|
0,1,5.5|
0,2,0.19|
0,3,9.6|
0,4,8.7|
0,5,6.8|
0,6,6.5|
0,7,5.9|
1,0,0.018|
1,1,6.2|
1,2,2.9|
1,3,8.8|
1,4,9.7|
1,5,8.3|
1,6,9.1|
1,7,4.5|
2,0,0.21|
2,1,5.7|
2,2,5.5|
2,3,5.9|
2,4,4|
2,5,7.7|
2,6,3.6|
2,7,3.2|
3,0,6.4|
3,1,6.5|
3,2,2.8|
3,3,9.6|
3,4,5.2|
3,5,4|
3,6,0.54|
3,7,9.9|
4,0,5.7|
4,1,3.2|
4,2,8.6|
4,3,1.9|
4,4,7.9|
4,5,5.3|
4,6,7.8|
4,7,1.3|
5,0,8.5|
5,1,0.67|
5,2,6.3|
5,3,1.4|
5,4,9.8|
5,5,6.3|
5,6,9.3|
5,7,2|
6,0,6.4|
6,1,8.4|
6,2,3.4|
6,3,2.5|
6,4,6.2|
6,5,4|
6,6,9.9|
6,7,0.25|
7,0,0.43|
7,1,4|
7,2,6.6|
7,3,2.5|
7,4,4.5|
7,5,6.1|
7,6,0.94|
7,7,6.3|
];
constraint_x4_x3=[
0,0,7.6|
0,1,1.9|
0,2,6.2|
0,3,9.2|
0,4,0.59|
0,5,5.6|
0,6,3.9|
0,7,0.85|
1,0,2.1|
1,1,8.5|
1,2,2.1|
1,3,5.5|
1,4,2.1|
1,5,8.8|
1,6,1.9|
1,7,2.3|
2,0,5.7|
2,1,7.4|
2,2,0.046|
2,3,4.3|
2,4,5.1|
2,5,1.7|
2,6,6.3|
2,7,5.3|
3,0,6.9|
3,1,2.4|
3,2,0.6|
3,3,1.2|
3,4,7.5|
3,5,3.7|
3,6,1.6|
3,7,7.4|
4,0,7.2|
4,1,5.4|
4,2,8.6|
4,3,9.7|
4,4,2.2|
4,5,3.8|
4,6,9.5|
4,7,6.2|
5,0,1.8|
5,1,8.1|
5,2,8.7|
5,3,5.3|
5,4,9.1|
5,5,8.4|
5,6,5|
5,7,1.2|
6,0,1.2|
6,1,6|
6,2,5.6|
6,3,8.7|
6,4,0.78|
6,5,6.5|
6,6,1.2|
6,7,1.4|
7,0,7.5|
7,1,0.39|
7,2,7.5|
7,3,2.1|
7,4,6.5|
7,5,8.5|
7,6,8.3|
7,7,4.8|
];
constraint_x5_x1=[
0,0,1.1|
0,1,2.6|
0,2,6.1|
0,3,4|
0,4,3.6|
0,5,8.4|
0,6,9.2|
0,7,6.9|
1,0,3|
1,1,5|
1,2,4.6|
1,3,5.6|
1,4,2.8|
1,5,0.0092|
1,6,8|
1,7,5.3|
2,0,6.9|
2,1,8.3|
2,2,5.6|
2,3,2.4|
2,4,4.4|
2,5,1.6|
2,6,4.3|
2,7,5.8|
3,0,4.2|
3,1,0.47|
3,2,8.7|
3,3,7|
3,4,4.9|
3,5,8.5|
3,6,0.37|
3,7,9.3|
4,0,9.6|
4,1,5.9|
4,2,2.1|
4,3,1.9|
4,4,2.3|
4,5,0.85|
4,6,3.5|
4,7,5.2|
5,0,8.7|
5,1,4.8|
5,2,3.5|
5,3,3.3|
5,4,6.7|
5,5,6.4|
5,6,3.9|
5,7,7.4|
6,0,3.8|
6,1,0.33|
6,2,0.33|
6,3,9.7|
6,4,0.048|
6,5,9|
6,6,3.9|
6,7,8.8|
7,0,7.5|
7,1,7.5|
7,2,7.7|
7,3,9.4|
7,4,0.19|
7,5,7.2|
7,6,5.4|
7,7,0.8|
];
constraint_x6_x2=[
0,0,3.8|
0,1,7.8|
0,2,9.7|
0,3,0.69|
0,4,0.53|
0,5,5.1|
0,6,2.3|
0,7,5.2|
1,0,7.5|
1,1,6.1|
1,2,1.9|
1,3,5.5|
1,4,2.9|
1,5,2|
1,6,8.5|
1,7,2.4|
2,0,7.7|
2,1,8|
2,2,7.7|
2,3,6.9|
2,4,4.1|
2,5,6.8|
2,6,2.2|
2,7,2.1|
3,0,1.7|
3,1,6.1|
3,2,4|
3,3,6.5|
3,4,6.6|
3,5,7.2|
3,6,0.85|
3,7,3|
4,0,6.8|
4,1,4.9|
4,2,3.5|
4,3,4.6|
4,4,6|
4,5,7.2|
4,6,3.6|
4,7,4.1|
5,0,4.1|
5,1,7.8|
5,2,5|
5,3,1.4|
5,4,3.2|
5,5,3.9|
5,6,4.4|
5,7,6.1|
6,0,0.79|
6,1,6.8|
6,2,2.7|
6,3,0.13|
6,4,2.4|
6,5,1.3|
6,6,2.5|
6,7,0.72|
7,0,3.6|
7,1,6.2|
7,2,9.5|
7,3,7.7|
7,4,0.076|
7,5,0.76|
7,6,5|
7,7,2.1|
];
constraint_x6_x5=[
0,0,0.11|
0,1,6.9|
0,2,9.3|
0,3,0.78|
0,4,9.6|
0,5,9.7|
0,6,5.9|
0,7,0.8|
1,0,6.5|
1,1,3.2|
1,2,6|
1,3,1.5|
1,4,1.3|
1,5,3.5|
1,6,0.43|
1,7,4.6|
2,0,2.3|
2,1,9.5|
2,2,3.8|
2,3,9.2|
2,4,4.8|
2,5,7.6|
2,6,3.7|
2,7,3.3|
3,0,4.3|
3,1,9.2|
3,2,8.7|
3,3,2.8|
3,4,7.5|
3,5,0.26|
3,6,1.8|
3,7,5.9|
4,0,9.6|
4,1,0.82|
4,2,3.3|
4,3,8.8|
4,4,3.3|
4,5,8.5|
4,6,3.3|
4,7,8.6|
5,0,2.9|
5,1,7|
5,2,6.9|
5,3,6.7|
5,4,5.1|
5,5,6.1|
5,6,1.8|
5,7,9.3|
6,0,1.7|
6,1,8.1|
6,2,8.2|
6,3,9.1|
6,4,0.74|
6,5,7.9|
6,6,9.9|
6,7,2.8|
7,0,3.9|
7,1,0.73|
7,2,5.2|
7,3,0.68|
7,4,0.87|
7,5,5.3|
7,6,4.7|
7,7,0.34|
];
constraint_x7_x3=[
0,0,8.4|
0,1,1.4|
0,2,7.1|
0,3,7.9|
0,4,0.87|
0,5,4.8|
0,6,7.2|
0,7,0.19|
1,0,0.39|
1,1,0.9|
1,2,5.6|
1,3,5.4|
1,4,1.2|
1,5,1.8|
1,6,6.3|
1,7,8.5|
2,0,1.9|
2,1,6.9|
2,2,4.6|
2,3,1.7|
2,4,2.3|
2,5,4.2|
2,6,2.3|
2,7,0.89|
3,0,8.2|
3,1,3.2|
3,2,1.9|
3,3,8.1|
3,4,7|
3,5,4.6|
3,6,2.3|
3,7,6.2|
4,0,5|
4,1,7.7|
4,2,2.1|
4,3,1.5|
4,4,0.23|
4,5,4.5|
4,6,5|
4,7,2.1|
5,0,4.3|
5,1,7.3|
5,2,9.1|
5,3,1.5|
5,4,5.1|
5,5,8.4|
5,6,6.3|
5,7,7.6|
6,0,8.4|
6,1,7.4|
6,2,5.1|
6,3,2.4|
6,4,1.2|
6,5,4.7|
6,6,0.7|
6,7,9.3|
7,0,2.8|
7,1,3.4|
7,2,2.7|
7,3,0.91|
7,4,9.4|
7,5,8.1|
7,6,3.1|
7,7,5.9|
];
constraint_x7_x6=[
0,0,5.4|
0,1,9.6|
0,2,3.5|
0,3,1.5|
0,4,6.5|
0,5,4.2|
0,6,7.2|
0,7,0.76|
1,0,0.43|
1,1,5|
1,2,9.6|
1,3,7.8|
1,4,5.9|
1,5,1.1|
1,6,7.2|
1,7,2.5|
2,0,9.9|
2,1,4.6|
2,2,7.7|
2,3,3.4|
2,4,7.7|
2,5,6.5|
2,6,1.5|
2,7,0.46|
3,0,0.83|
3,1,3|
3,2,7.1|
3,3,1|
3,4,7.5|
3,5,2.3|
3,6,2.3|
3,7,2.4|
4,0,4.3|
4,1,8.3|
4,2,6.6|
4,3,0.088|
4,4,4.3|
4,5,9.8|
4,6,1.1|
4,7,4.7|
5,0,2.6|
5,1,5.7|
5,2,6.5|
5,3,2|
5,4,4|
5,5,8.7|
5,6,0.07|
5,7,6.2|
6,0,4.1|
6,1,0.24|
6,2,0.57|
6,3,3.1|
6,4,8.7|
6,5,6.3|
6,6,3.7|
6,7,6.4|
7,0,5.2|
7,1,7|
7,2,7.7|
7,3,5.1|
7,4,6.8|
7,5,4.3|
7,6,5.3|
7,7,7|
];
constraint_x8_x4=[
0,0,5.2|
0,1,8.5|
0,2,9.6|
0,3,2.9|
0,4,2.5|
0,5,8|
0,6,0.089|
0,7,3.5|
1,0,6.4|
1,1,5.2|
1,2,7|
1,3,5.1|
1,4,3.4|
1,5,0.34|
1,6,5.8|
1,7,8.4|
2,0,0.55|
2,1,0.2|
2,2,5.2|
2,3,8|
2,4,0.79|
2,5,6.7|
2,6,1.6|
2,7,9.9|
3,0,3.2|
3,1,0.31|
3,2,5.9|
3,3,7.3|
3,4,6.2|
3,5,7.6|
3,6,3.5|
3,7,1.2|
4,0,4.7|
4,1,4.2|
4,2,4.3|
4,3,5.7|
4,4,1.3|
4,5,1.2|
4,6,2.3|
4,7,0.21|
5,0,4.9|
5,1,8.8|
5,2,5.2|
5,3,3.5|
5,4,8.3|
5,5,4.1|
5,6,1.3|
5,7,7.4|
6,0,8.1|
6,1,5.1|
6,2,5.4|
6,3,9.7|
6,4,8|
6,5,1.3|
6,6,9.9|
6,7,3.4|
7,0,8.5|
7,1,1.8|
7,2,5.4|
7,3,0.12|
7,4,1.5|
7,5,0.42|
7,6,1.6|
7,7,6.1|
];
constraint_x8_x7=[
0,0,0.33|
0,1,8.4|
0,2,0.79|
0,3,4.9|
0,4,9.6|
0,5,5.9|
0,6,7.9|
0,7,3.6|
1,0,5.7|
1,1,8.2|
1,2,2.3|
1,3,2|
1,4,0.89|
1,5,9.5|
1,6,1.8|
1,7,6.5|
2,0,4.8|
2,1,1.2|
2,2,3.1|
2,3,7.1|
2,4,9.5|
2,5,8.7|
2,6,2.5|
2,7,0.88|
3,0,2.9|
3,1,7.9|
3,2,9.2|
3,3,6.4|
3,4,5.9|
3,5,9.3|
3,6,1.7|
3,7,6.7|
4,0,2.2|
4,1,6.1|
4,2,9.3|
4,3,8.6|
4,4,9|
4,5,2.7|
4,6,0.056|
4,7,4.4|
5,0,6.8|
5,1,4.5|
5,2,1.2|
5,3,4.1|
5,4,9.5|
5,5,8.3|
5,6,2.4|
5,7,2.8|
6,0,6.1|
6,1,9.1|
6,2,9.4|
6,3,5.6|
6,4,6.9|
6,5,6.3|
6,6,2.6|
6,7,7|
7,0,7.4|
7,1,4.1|
7,2,9.8|
7,3,1|
7,4,8.9|
7,5,6|
7,6,6.1|
7,7,0.44|
];
constraint_x9_x5=[
0,0,0.33|
0,1,3.5|
0,2,2.2|
0,3,2.8|
0,4,7.7|
0,5,9.9|
0,6,6.1|
0,7,1.4|
1,0,0.24|
1,1,10|
1,2,3.6|
1,3,8|
1,4,1.8|
1,5,4.8|
1,6,2.3|
1,7,1.1|
2,0,5.8|
2,1,6.6|
2,2,2.5|
2,3,1.3|
2,4,8.1|
2,5,3.4|
2,6,6.6|
2,7,7.1|
3,0,7.5|
3,1,6.2|
3,2,3.7|
3,3,3.9|
3,4,2.8|
3,5,6.4|
3,6,3.3|
3,7,4.4|
4,0,9.8|
4,1,2.7|
4,2,8.1|
4,3,7.2|
4,4,0.55|
4,5,7.6|
4,6,8.7|
4,7,9.2|
5,0,7.8|
5,1,0.8|
5,2,5.3|
5,3,8.4|
5,4,5.1|
5,5,9.9|
5,6,3.5|
5,7,3.6|
6,0,7.4|
6,1,5.6|
6,2,1.7|
6,3,6.3|
6,4,7.9|
6,5,2.4|
6,6,8.9|
6,7,3.3|
7,0,7.4|
7,1,0.88|
7,2,6.9|
7,3,0.27|
7,4,9.8|
7,5,0.061|
7,6,3.7|
7,7,8.2|
];
constraint_x10_x6=[
0,0,0.48|
0,1,3.4|
0,2,2.5|
0,3,4.6|
0,4,9.8|
0,5,4.9|
0,6,6.8|
0,7,1.3|
1,0,9.2|
1,1,7.2|
1,2,7.8|
1,3,3.1|
1,4,1.3|
1,5,2.4|
1,6,3.7|
1,7,3.3|
2,0,6.7|
2,1,9.4|
2,2,4.7|
2,3,6.3|
2,4,1.7|
2,5,1.3|
2,6,4.5|
2,7,7.5|
3,0,8.9|
3,1,3.7|
3,2,3.6|
3,3,9.6|
3,4,0.15|
3,5,8.5|
3,6,2.4|
3,7,2.3|
4,0,0.75|
4,1,3.1|
4,2,4|
4,3,5.8|
4,4,8.7|
4,5,3.8|
4,6,2.6|
4,7,5.2|
5,0,5.8|
5,1,1.2|
5,2,2.7|
5,3,3.8|
5,4,8|
5,5,7.1|
5,6,6.6|
5,7,7.9|
6,0,4.7|
6,1,2.9|
6,2,4.6|
6,3,3.4|
6,4,3.9|
6,5,5.6|
6,6,7|
6,7,9.3|
7,0,3.6|
7,1,1.8|
7,2,1.1|
7,3,7.2|
7,4,0.01|
7,5,4|
7,6,5.7|
7,7,3.3|
];
constraint_x10_x9=[
0,0,5.9|
0,1,5.2|
0,2,7.8|
0,3,4.6|
0,4,5.2|
0,5,9.9|
0,6,2.9|
0,7,0.61|
1,0,7.9|
1,1,3.2|
1,2,6.9|
1,3,3.5|
1,4,4.2|
1,5,0.079|
1,6,7.4|
1,7,7.2|
2,0,0.66|
2,1,8.1|
2,2,9.5|
2,3,9.1|
2,4,0.15|
2,5,8.1|
2,6,8.2|
2,7,8.9|
3,0,1.7|
3,1,6.7|
3,2,3.6|
3,3,4.2|
3,4,3.1|
3,5,1.7|
3,6,5.4|
3,7,0.088|
4,0,9.8|
4,1,4.4|
4,2,1.7|
4,3,8.9|
4,4,0.25|
4,5,5.2|
4,6,4.2|
4,7,7|
5,0,1.4|
5,1,6.6|
5,2,7.9|
5,3,3.6|
5,4,7.9|
5,5,7|
5,6,2.1|
5,7,2.3|
6,0,1.4|
6,1,5.2|
6,2,8|
6,3,1.2|
6,4,5.2|
6,5,1.7|
6,6,4.7|
6,7,9.3|
7,0,2.7|
7,1,5|
7,2,9.5|
7,3,0.76|
7,4,2.1|
7,5,2.7|
7,6,5.6|
7,7,4.6|
];
constraint_x11_x7=[
0,0,8|
0,1,1.3|
0,2,9.4|
0,3,2.4|
0,4,4.7|
0,5,1.5|
0,6,4.5|
0,7,0.099|
1,0,2.1|
1,1,2.1|
1,2,0.18|
1,3,2.9|
1,4,4.6|
1,5,7.2|
1,6,4.6|
1,7,3.2|
2,0,10|
2,1,2.4|
2,2,0.99|
2,3,9.2|
2,4,1.6|
2,5,8|
2,6,1.1|
2,7,8.7|
3,0,2.9|
3,1,7.1|
3,2,2.5|
3,3,4.9|
3,4,2.8|
3,5,6.3|
3,6,5.5|
3,7,7.9|
4,0,9.8|
4,1,9|
4,2,2.9|
4,3,4.7|
4,4,9|
4,5,3.5|
4,6,6.7|
4,7,6.4|
5,0,6.1|
5,1,3.7|
5,2,2.8|
5,3,7|
5,4,8.9|
5,5,7.6|
5,6,2|
5,7,5.3|
6,0,7.5|
6,1,7|
6,2,5.7|
6,3,9.8|
6,4,8.1|
6,5,4.3|
6,6,2.5|
6,7,4.3|
7,0,5.6|
7,1,9.2|
7,2,4.1|
7,3,5.1|
7,4,6|
7,5,8.1|
7,6,3.7|
7,7,7.2|
];
constraint_x11_x10=[
0,0,1.7|
0,1,1.5|
0,2,5.4|
0,3,0.39|
0,4,4.8|
0,5,2.6|
0,6,2.2|
0,7,1.5|
1,0,1.3|
1,1,0.25|
1,2,4|
1,3,4.3|
1,4,5.9|
1,5,9.4|
1,6,3.9|
1,7,5.8|
2,0,3.6|
2,1,5.2|
2,2,3.8|
2,3,5.4|
2,4,7.7|
2,5,9.4|
2,6,9.1|
2,7,5.8|
3,0,4.9|
3,1,5.5|
3,2,5.8|
3,3,1.8|
3,4,3.9|
3,5,9.8|
3,6,2.3|
3,7,4.1|
4,0,6.3|
4,1,6.7|
4,2,8.8|
4,3,2.1|
4,4,6.4|
4,5,0.92|
4,6,5.3|
4,7,7.3|
5,0,7.6|
5,1,5.6|
5,2,6.5|
5,3,6.9|
5,4,0.35|
5,5,0.27|
5,6,4.8|
5,7,6.9|
6,0,2.9|
6,1,2.7|
6,2,9.8|
6,3,9.6|
6,4,9|
6,5,1.3|
6,6,6.6|
6,7,0.54|
7,0,6.9|
7,1,8.3|
7,2,7.1|
7,3,2.3|
7,4,0.99|
7,5,8.8|
7,6,3.1|
7,7,1.7|
];
constraint_x12_x8=[
0,0,9.5|
0,1,8.2|
0,2,7.1|
0,3,8.7|
0,4,6.6|
0,5,4.7|
0,6,1.8|
0,7,9.3|
1,0,1.5|
1,1,6.1|
1,2,4.3|
1,3,9.1|
1,4,7.3|
1,5,9.4|
1,6,7.6|
1,7,2.4|
2,0,7.2|
2,1,9.7|
2,2,7.1|
2,3,9.2|
2,4,1.8|
2,5,1.6|
2,6,7.1|
2,7,3.2|
3,0,4.4|
3,1,4.4|
3,2,0.55|
3,3,6.5|
3,4,1.4|
3,5,2.5|
3,6,4.8|
3,7,8.7|
4,0,7.7|
4,1,1.6|
4,2,3.4|
4,3,3.5|
4,4,0.75|
4,5,4|
4,6,8.4|
4,7,7.3|
5,0,8.8|
5,1,4.2|
5,2,7.4|
5,3,3.2|
5,4,2.3|
5,5,8.8|
5,6,0.45|
5,7,6.1|
6,0,9.6|
6,1,7.3|
6,2,5|
6,3,8.3|
6,4,8.2|
6,5,6.7|
6,6,5.9|
6,7,7.5|
7,0,3.6|
7,1,4.3|
7,2,2.7|
7,3,6.1|
7,4,2.9|
7,5,6.5|
7,6,10|
7,7,4.7|
];
constraint_x12_x11=[
0,0,6.5|
0,1,4.5|
0,2,3.4|
0,3,9|
0,4,7.7|
0,5,9.1|
0,6,6.3|
0,7,3.4|
1,0,5.5|
1,1,9.5|
1,2,5.5|
1,3,5.3|
1,4,6.1|
1,5,6.3|
1,6,9|
1,7,2.4|
2,0,8.2|
2,1,2.9|
2,2,1.8|
2,3,6.7|
2,4,3.2|
2,5,8.3|
2,6,9.1|
2,7,6.5|
3,0,3.7|
3,1,6.9|
3,2,8.4|
3,3,6.7|
3,4,4.4|
3,5,0.12|
3,6,7.3|
3,7,0.69|
4,0,5.7|
4,1,8.4|
4,2,2.9|
4,3,5.9|
4,4,0.29|
4,5,9.9|
4,6,0.79|
4,7,0.99|
5,0,4.2|
5,1,3.2|
5,2,6.3|
5,3,2.3|
5,4,4.5|
5,5,9|
5,6,9.8|
5,7,9|
6,0,7.8|
6,1,1.6|
6,2,2.1|
6,3,7.1|
6,4,7.2|
6,5,0.82|
6,6,8.8|
6,7,5.1|
7,0,2.5|
7,1,0.61|
7,2,6.4|
7,3,5.6|
7,4,9.1|
7,5,8.5|
7,6,3.1|
7,7,3.3|
];
constraint_x13_x9=[
0,0,7.6|
0,1,3.6|
0,2,8.2|
0,3,9.5|
0,4,0.16|
0,5,4|
0,6,9|
0,7,9.2|
1,0,9.2|
1,1,4.6|
1,2,3.3|
1,3,6.3|
1,4,4.9|
1,5,1.5|
1,6,8|
1,7,7.6|
2,0,1.3|
2,1,8.5|
2,2,0.4|
2,3,5|
2,4,4.5|
2,5,1.8|
2,6,6.5|
2,7,6.9|
3,0,7.9|
3,1,3.9|
3,2,2.5|
3,3,5.5|
3,4,5.3|
3,5,4.6|
3,6,6.1|
3,7,9.4|
4,0,2.5|
4,1,9.6|
4,2,5.9|
4,3,2.2|
4,4,0.1|
4,5,7.6|
4,6,3.6|
4,7,5.8|
5,0,5.5|
5,1,1.3|
5,2,7|
5,3,0.96|
5,4,4.4|
5,5,3.4|
5,6,2.9|
5,7,5.7|
6,0,1.1|
6,1,4.1|
6,2,3.1|
6,3,7|
6,4,3.3|
6,5,1.2|
6,6,1.3|
6,7,2.6|
7,0,2.3|
7,1,5.3|
7,2,2.5|
7,3,9.3|
7,4,8.4|
7,5,5.1|
7,6,8.9|
7,7,1.5|
];
constraint_x14_x10=[
0,0,0.91|
0,1,6|
0,2,8.5|
0,3,9|
0,4,5.8|
0,5,6.9|
0,6,2.2|
0,7,9.2|
1,0,2.3|
1,1,4|
1,2,3.5|
1,3,7.3|
1,4,7.9|
1,5,5.8|
1,6,3.1|
1,7,3.2|
2,0,4.5|
2,1,2.6|
2,2,6.9|
2,3,1.1|
2,4,3.3|
2,5,2.5|
2,6,8.6|
2,7,1.3|
3,0,4.2|
3,1,1.4|
3,2,3.5|
3,3,0.63|
3,4,7.5|
3,5,5.8|
3,6,9.2|
3,7,7.4|
4,0,3.2|
4,1,8.5|
4,2,5|
4,3,9.9|
4,4,7.8|
4,5,2.6|
4,6,8.5|
4,7,4.8|
5,0,8.4|
5,1,1.2|
5,2,0.78|
5,3,4|
5,4,0.6|
5,5,6.8|
5,6,2.1|
5,7,1.2|
6,0,0.85|
6,1,9|
6,2,2.9|
6,3,3.2|
6,4,5.3|
6,5,4.4|
6,6,6.2|
6,7,9.6|
7,0,1.5|
7,1,5.1|
7,2,10|
7,3,4.4|
7,4,7.9|
7,5,4.4|
7,6,1.5|
7,7,3.6|
];
constraint_x14_x13=[
0,0,3.4|
0,1,4.2|
0,2,9.3|
0,3,8.6|
0,4,7.3|
0,5,0.18|
0,6,7.5|
0,7,8.5|
1,0,7|
1,1,9.1|
1,2,3.9|
1,3,2.3|
1,4,8.6|
1,5,1.9|
1,6,1.1|
1,7,3.7|
2,0,6.9|
2,1,2.5|
2,2,9.7|
2,3,3.7|
2,4,3.9|
2,5,9.4|
2,6,5.8|
2,7,9.8|
3,0,1.8|
3,1,3|
3,2,9.8|
3,3,7.2|
3,4,8.3|
3,5,4.3|
3,6,6.4|
3,7,3.3|
4,0,2.4|
4,1,9.2|
4,2,6.4|
4,3,3.1|
4,4,1.8|
4,5,4.8|
4,6,5.6|
4,7,7.1|
5,0,6.3|
5,1,6.5|
5,2,5|
5,3,2.2|
5,4,5.8|
5,5,3.7|
5,6,9.6|
5,7,6.6|
6,0,0.69|
6,1,4.8|
6,2,9.5|
6,3,4|
6,4,7|
6,5,4.9|
6,6,2|
6,7,0.69|
7,0,1.9|
7,1,1.5|
7,2,0.54|
7,3,3.5|
7,4,5.1|
7,5,3|
7,6,6.8|
7,7,5.5|
];
constraint_x15_x11=[
0,0,7.5|
0,1,7.7|
0,2,7|
0,3,3.4|
0,4,3.4|
0,5,5.5|
0,6,7.9|
0,7,7|
1,0,8.8|
1,1,4.9|
1,2,5.3|
1,3,4.7|
1,4,1.7|
1,5,0.53|
1,6,4.3|
1,7,4.5|
2,0,9.5|
2,1,9.2|
2,2,9|
2,3,7.5|
2,4,2.4|
2,5,9.8|
2,6,9.6|
2,7,4.8|
3,0,8.3|
3,1,1.9|
3,2,5.7|
3,3,7.1|
3,4,5.7|
3,5,1.9|
3,6,0.95|
3,7,6.5|
4,0,6.7|
4,1,1.1|
4,2,8.8|
4,3,7.7|
4,4,0.15|
4,5,1.5|
4,6,7.1|
4,7,7.2|
5,0,5|
5,1,8.2|
5,2,0.35|
5,3,9.8|
5,4,2.2|
5,5,6.2|
5,6,7.4|
5,7,3.7|
6,0,3|
6,1,8.4|
6,2,6.4|
6,3,9.4|
6,4,7.8|
6,5,8.1|
6,6,4.4|
6,7,3|
7,0,5.6|
7,1,4.3|
7,2,6|
7,3,1|
7,4,9.5|
7,5,4.4|
7,6,8.6|
7,7,8.1|
];
constraint_x15_x14=[
0,0,3|
0,1,1|
0,2,2.8|
0,3,0.27|
0,4,4.5|
0,5,0.83|
0,6,4.2|
0,7,10|
1,0,4.2|
1,1,9.1|
1,2,1.7|
1,3,4.5|
1,4,3.9|
1,5,3.4|
1,6,9.2|
1,7,6|
2,0,7.9|
2,1,1.4|
2,2,9|
2,3,1.1|
2,4,6.6|
2,5,6.2|
2,6,7.5|
2,7,1.5|
3,0,3.2|
3,1,0.77|
3,2,4.1|
3,3,3|
3,4,5.6|
3,5,0.47|
3,6,2.8|
3,7,7|
4,0,6.8|
4,1,7.4|
4,2,1.7|
4,3,0.34|
4,4,0.25|
4,5,3.3|
4,6,4.3|
4,7,9.2|
5,0,9.8|
5,1,5|
5,2,5.2|
5,3,3.1|
5,4,4.1|
5,5,2.8|
5,6,8.7|
5,7,2.7|
6,0,8|
6,1,0.98|
6,2,8.6|
6,3,9.5|
6,4,3.8|
6,5,6.2|
6,6,3|
6,7,1.8|
7,0,6|
7,1,7.2|
7,2,1.6|
7,3,2.5|
7,4,4.1|
7,5,2.2|
7,6,5.4|
7,7,8.5|
];
constraint_x16_x12=[
0,0,8.6|
0,1,2|
0,2,8.1|
0,3,6.5|
0,4,1.8|
0,5,1.3|
0,6,1.3|
0,7,6.1|
1,0,7.5|
1,1,9.3|
1,2,4.6|
1,3,2|
1,4,1|
1,5,8.5|
1,6,9.8|
1,7,8.7|
2,0,7.5|
2,1,6.1|
2,2,5.8|
2,3,6.1|
2,4,7.1|
2,5,7.7|
2,6,1.1|
2,7,2.5|
3,0,8.3|
3,1,0.44|
3,2,2.5|
3,3,7|
3,4,4.5|
3,5,3.2|
3,6,5.8|
3,7,4.8|
4,0,2.2|
4,1,4.7|
4,2,9.2|
4,3,9.7|
4,4,10|
4,5,9.6|
4,6,2.1|
4,7,5.7|
5,0,9.6|
5,1,7.3|
5,2,9.8|
5,3,4.2|
5,4,2|
5,5,9.1|
5,6,9.2|
5,7,5.7|
6,0,6.4|
6,1,8.8|
6,2,8.7|
6,3,5.8|
6,4,3.8|
6,5,7.7|
6,6,9.9|
6,7,3.9|
7,0,3.9|
7,1,7.6|
7,2,8|
7,3,7.6|
7,4,9.4|
7,5,7.3|
7,6,1|
7,7,8.1|
];
constraint_x16_x15=[
0,0,3|
0,1,9.4|
0,2,1.4|
0,3,1.4|
0,4,0.94|
0,5,2.9|
0,6,9.8|
0,7,4|
1,0,5.3|
1,1,2.5|
1,2,6.9|
1,3,5|
1,4,4.8|
1,5,5.7|
1,6,8|
1,7,1.3|
2,0,10|
2,1,4.6|
2,2,5.6|
2,3,8.1|
2,4,3.9|
2,5,0.78|
2,6,3.7|
2,7,8.2|
3,0,7.3|
3,1,0.35|
3,2,7.8|
3,3,2.5|
3,4,9.7|
3,5,4.7|
3,6,3.6|
3,7,8.5|
4,0,9.3|
4,1,8.4|
4,2,7.5|
4,3,1.3|
4,4,9|
4,5,0.26|
4,6,1.1|
4,7,4|
5,0,2.7|
5,1,0.02|
5,2,2|
5,3,1.6|
5,4,1.5|
5,5,9.2|
5,6,0.32|
5,7,8.5|
6,0,2.7|
6,1,7.9|
6,2,3.1|
6,3,5.8|
6,4,0.65|
6,5,7.8|
6,6,8.5|
6,7,0.14|
7,0,7.8|
7,1,9.7|
7,2,6.6|
7,3,1.1|
7,4,0.54|
7,5,8.3|
7,6,9.1|
7,7,1.1|
];
constraint_x17_x13=[
0,0,6.3|
0,1,1.4|
0,2,5.1|
0,3,5.1|
0,4,0.069|
0,5,8.6|
0,6,7.5|
0,7,8.8|
1,0,1.5|
1,1,2.6|
1,2,7.2|
1,3,0.043|
1,4,7.9|
1,5,9.3|
1,6,9.7|
1,7,5.4|
2,0,5.4|
2,1,5.8|
2,2,2.9|
2,3,5|
2,4,1.4|
2,5,0.31|
2,6,3.8|
2,7,3.9|
3,0,9.7|
3,1,5|
3,2,4.7|
3,3,3.9|
3,4,4.3|
3,5,4.8|
3,6,0.65|
3,7,1.8|
4,0,2.2|
4,1,0.21|
4,2,2.4|
4,3,7.5|
4,4,3|
4,5,6.5|
4,6,0.21|
4,7,3|
5,0,3.6|
5,1,8.1|
5,2,8.4|
5,3,5.4|
5,4,1.7|
5,5,9.7|
5,6,7.9|
5,7,7.8|
6,0,1.5|
6,1,3|
6,2,5.4|
6,3,5.5|
6,4,3.2|
6,5,9.9|
6,6,5.2|
6,7,9.6|
7,0,2.3|
7,1,9.3|
7,2,0.33|
7,3,9|
7,4,0.65|
7,5,7.5|
7,6,2.9|
7,7,6.3|
];
constraint_x18_x14=[
0,0,0.24|
0,1,4.6|
0,2,4.7|
0,3,2.3|
0,4,3.5|
0,5,9.6|
0,6,2.7|
0,7,8|
1,0,1|
1,1,4.2|
1,2,4.4|
1,3,5.2|
1,4,0.37|
1,5,4.1|
1,6,0.19|
1,7,7|
2,0,9.9|
2,1,3.2|
2,2,2.6|
2,3,5|
2,4,8.6|
2,5,6.1|
2,6,6.1|
2,7,2.4|
3,0,6.1|
3,1,8.4|
3,2,9.9|
3,3,3.7|
3,4,9.8|
3,5,3.3|
3,6,1.5|
3,7,5.6|
4,0,6.7|
4,1,7.9|
4,2,4.3|
4,3,9.3|
4,4,2.9|
4,5,8.9|
4,6,3.8|
4,7,1.9|
5,0,2.6|
5,1,4.6|
5,2,6.1|
5,3,6.5|
5,4,5.8|
5,5,9.2|
5,6,9.3|
5,7,5.8|
6,0,6.2|
6,1,1.4|
6,2,4.8|
6,3,7.1|
6,4,2.3|
6,5,7.2|
6,6,5.5|
6,7,8.6|
7,0,6.4|
7,1,3.4|
7,2,9.1|
7,3,9|
7,4,8.1|
7,5,4.5|
7,6,8.1|
7,7,2.2|
];
constraint_x19_x15=[
0,0,5.4|
0,1,9.4|
0,2,2|
0,3,3.5|
0,4,9.8|
0,5,7.7|
0,6,4.4|
0,7,4.6|
1,0,8.3|
1,1,8.7|
1,2,1.8|
1,3,7.5|
1,4,0.38|
1,5,4.3|
1,6,2.6|
1,7,5.6|
2,0,3.3|
2,1,1.9|
2,2,7.2|
2,3,8.7|
2,4,6.9|
2,5,8.2|
2,6,3.1|
2,7,4.4|
3,0,3.6|
3,1,8.5|
3,2,7.8|
3,3,4.5|
3,4,9.8|
3,5,7.5|
3,6,9|
3,7,6.5|
4,0,2.3|
4,1,2.4|
4,2,9.7|
4,3,8.9|
4,4,2|
4,5,3.9|
4,6,9.6|
4,7,8.8|
5,0,7.8|
5,1,2.7|
5,2,5.8|
5,3,0.44|
5,4,8.3|
5,5,0.72|
5,6,3.4|
5,7,5|
6,0,4.2|
6,1,8.9|
6,2,2.6|
6,3,3.9|
6,4,6.8|
6,5,5.4|
6,6,6.7|
6,7,4|
7,0,9.2|
7,1,1.1|
7,2,5.7|
7,3,2.3|
7,4,7.5|
7,5,1.7|
7,6,2.3|
7,7,2|
];
constraint_x20_x16=[
0,0,1.9|
0,1,0.57|
0,2,4.7|
0,3,6.3|
0,4,9.1|
0,5,0.7|
0,6,3.5|
0,7,4.7|
1,0,8.4|
1,1,4.3|
1,2,0.59|
1,3,9|
1,4,9.2|
1,5,5.8|
1,6,2.8|
1,7,9.4|
2,0,3.2|
2,1,0.93|
2,2,6.3|
2,3,10|
2,4,8.9|
2,5,1.5|
2,6,5.6|
2,7,1.3|
3,0,3.7|
3,1,0.79|
3,2,2.8|
3,3,6|
3,4,5|
3,5,5.6|
3,6,9.9|
3,7,3.6|
4,0,7.4|
4,1,1.7|
4,2,4.1|
4,3,7.9|
4,4,0.49|
4,5,2.2|
4,6,3.3|
4,7,1.4|
5,0,8.7|
5,1,4.2|
5,2,2.7|
5,3,2.3|
5,4,3.3|
5,5,6.2|
5,6,3.5|
5,7,3.9|
6,0,10|
6,1,0.55|
6,2,5.8|
6,3,9.4|
6,4,6|
6,5,4|
6,6,10|
6,7,4.8|
7,0,5.8|
7,1,5.6|
7,2,2.6|
7,3,2.5|
7,4,4|
7,5,9.3|
7,6,9|
7,7,3.7|
];
constraint_x1_y1=[
0,0,8.6|
0,1,7.1|
0,2,0.36|
0,3,2.9|
0,4,2.3|
0,5,7.2|
0,6,4.6|
0,7,3.4|
1,0,7.3|
1,1,6.4|
1,2,2.9|
1,3,8.5|
1,4,8.5|
1,5,0.13|
1,6,6.5|
1,7,5.7|
2,0,3.1|
2,1,2.1|
2,2,8.8|
2,3,9.7|
2,4,2.4|
2,5,6.3|
2,6,4.2|
2,7,0.74|
3,0,9.1|
3,1,0.87|
3,2,7.6|
3,3,4.1|
3,4,2.7|
3,5,3.6|
3,6,8.2|
3,7,1.1|
4,0,8.8|
4,1,2.5|
4,2,7.5|
4,3,8.3|
4,4,1.7|
4,5,7.2|
4,6,1.5|
4,7,8.3|
5,0,4.6|
5,1,5.7|
5,2,4.9|
5,3,7.3|
5,4,6.9|
5,5,5.7|
5,6,8.5|
5,7,7.3|
6,0,5.7|
6,1,5.7|
6,2,1.8|
6,3,8.1|
6,4,2|
6,5,2.5|
6,6,3.6|
6,7,5.9|
7,0,5.5|
7,1,5.5|
7,2,8.8|
7,3,1.8|
7,4,1.1|
7,5,0.76|
7,6,7.1|
7,7,7.9|
];
constraint_x2_y2=[
0,0,10|
0,1,8.7|
0,2,1.1|
0,3,3.4|
0,4,1.1|
0,5,7.5|
0,6,8.5|
0,7,8.2|
1,0,7.1|
1,1,6.2|
1,2,4.4|
1,3,1.1|
1,4,5.1|
1,5,2.6|
1,6,7.4|
1,7,0.078|
2,0,1.1|
2,1,6.1|
2,2,9.1|
2,3,1.9|
2,4,6.1|
2,5,0.012|
2,6,8.1|
2,7,3.4|
3,0,3.9|
3,1,1.6|
3,2,8.8|
3,3,4.7|
3,4,3|
3,5,5.8|
3,6,8.4|
3,7,7.1|
4,0,4.8|
4,1,0.97|
4,2,5.1|
4,3,7.7|
4,4,6.6|
4,5,8.1|
4,6,0.31|
4,7,0.5|
5,0,7.7|
5,1,8.7|
5,2,2.4|
5,3,1.4|
5,4,1.9|
5,5,2.4|
5,6,5|
5,7,1.4|
6,0,9.1|
6,1,6|
6,2,7.1|
6,3,5.7|
6,4,4.1|
6,5,8.7|
6,6,0.79|
6,7,3.9|
7,0,3|
7,1,6.6|
7,2,5.8|
7,3,2.6|
7,4,2.2|
7,5,8.1|
7,6,4|
7,7,4.5|
];
constraint_x3_y3=[
0,0,5.1|
0,1,8|
0,2,9|
0,3,2.7|
0,4,4.1|
0,5,8.3|
0,6,4.8|
0,7,3.3|
1,0,6.7|
1,1,6.8|
1,2,5.1|
1,3,7.6|
1,4,8.2|
1,5,9.4|
1,6,2|
1,7,1.7|
2,0,2.3|
2,1,8.2|
2,2,3.3|
2,3,8|
2,4,0.35|
2,5,8.8|
2,6,6.2|
2,7,2.4|
3,0,4.3|
3,1,0.98|
3,2,3.4|
3,3,3.4|
3,4,9.1|
3,5,8|
3,6,5.4|
3,7,0.35|
4,0,9.1|
4,1,8.7|
4,2,3.5|
4,3,7.1|
4,4,9|
4,5,3.8|
4,6,5.9|
4,7,9.4|
5,0,2.6|
5,1,8.5|
5,2,8.5|
5,3,6.3|
5,4,2.1|
5,5,3.8|
5,6,9.6|
5,7,3.7|
6,0,2.4|
6,1,4.7|
6,2,5.1|
6,3,5.4|
6,4,9.4|
6,5,8.5|
6,6,9.2|
6,7,0.15|
7,0,5.2|
7,1,5.5|
7,2,0.38|
7,3,3.8|
7,4,2.7|
7,5,6.9|
7,6,5|
7,7,5.4|
];
constraint_x4_y4=[
0,0,1.1|
0,1,7.1|
0,2,3.1|
0,3,8.2|
0,4,3.8|
0,5,8.4|
0,6,3.9|
0,7,8.1|
1,0,2.1|
1,1,4.1|
1,2,9.5|
1,3,3.6|
1,4,1.8|
1,5,9.4|
1,6,2.9|
1,7,4.2|
2,0,5|
2,1,1.4|
2,2,9.9|
2,3,1.4|
2,4,8.5|
2,5,3.5|
2,6,3.8|
2,7,5|
3,0,9.9|
3,1,0.93|
3,2,8.1|
3,3,2.5|
3,4,7.7|
3,5,7.6|
3,6,1.6|
3,7,6.7|
4,0,7.9|
4,1,9.9|
4,2,0.25|
4,3,9.3|
4,4,0.16|
4,5,6.5|
4,6,3.5|
4,7,3.9|
5,0,3.4|
5,1,4.2|
5,2,5.4|
5,3,9.8|
5,4,2.3|
5,5,7.4|
5,6,5.8|
5,7,4|
6,0,2.3|
6,1,5.2|
6,2,0.0089|
6,3,7.1|
6,4,3.1|
6,5,2.2|
6,6,3.7|
6,7,1.3|
7,0,5.4|
7,1,5.9|
7,2,3.1|
7,3,1.8|
7,4,9.5|
7,5,7.2|
7,6,1.4|
7,7,2.4|
];
constraint_x5_y5=[
0,0,1.6|
0,1,6.6|
0,2,1.8|
0,3,7.7|
0,4,7.1|
0,5,2.3|
0,6,4.7|
0,7,5.5|
1,0,1.8|
1,1,1.5|
1,2,1.8|
1,3,1.3|
1,4,8|
1,5,7.5|
1,6,1.5|
1,7,7.6|
2,0,3.8|
2,1,8.6|
2,2,3.3|
2,3,7|
2,4,6.7|
2,5,8|
2,6,9.2|
2,7,6.5|
3,0,6|
3,1,0.86|
3,2,5.4|
3,3,4|
3,4,8.5|
3,5,1.6|
3,6,6.7|
3,7,5.4|
4,0,4.1|
4,1,4.4|
4,2,4.1|
4,3,7.3|
4,4,9.1|
4,5,3.3|
4,6,4.5|
4,7,3.5|
5,0,3|
5,1,5.6|
5,2,7.3|
5,3,2.7|
5,4,8.4|
5,5,5.2|
5,6,3.8|
5,7,7.8|
6,0,1.2|
6,1,9.3|
6,2,3.8|
6,3,7.7|
6,4,4.4|
6,5,0.48|
6,6,7.1|
6,7,5.1|
7,0,5.8|
7,1,8.1|
7,2,7.6|
7,3,2.3|
7,4,7.7|
7,5,5.6|
7,6,0.17|
7,7,6.8|
];
constraint_x6_y6=[
0,0,7.4|
0,1,2.9|
0,2,7.8|
0,3,3.9|
0,4,3.5|
0,5,9.7|
0,6,5.1|
0,7,2.9|
1,0,6.3|
1,1,6.4|
1,2,9.8|
1,3,7.5|
1,4,8.7|
1,5,0.43|
1,6,5.1|
1,7,10|
2,0,0.99|
2,1,1.7|
2,2,0.078|
2,3,5|
2,4,8.4|
2,5,9.1|
2,6,8.6|
2,7,0.14|
3,0,2.6|
3,1,4.9|
3,2,5.8|
3,3,6.6|
3,4,2.5|
3,5,8.9|
3,6,4.6|
3,7,0.29|
4,0,5.5|
4,1,6.4|
4,2,6.2|
4,3,5.4|
4,4,0.97|
4,5,4.5|
4,6,2.5|
4,7,0.62|
5,0,7.3|
5,1,3.7|
5,2,5.3|
5,3,3.6|
5,4,3.9|
5,5,4.8|
5,6,2.4|
5,7,7|
6,0,3.2|
6,1,7.3|
6,2,7.5|
6,3,2.8|
6,4,2.4|
6,5,3.3|
6,6,6.3|
6,7,1.3|
7,0,7.4|
7,1,3.1|
7,2,8.1|
7,3,0.5|
7,4,3.2|
7,5,5.8|
7,6,7.1|
7,7,6.2|
];
constraint_x7_y7=[
0,0,2.4|
0,1,6.2|
0,2,2.9|
0,3,7.9|
0,4,9.1|
0,5,6.7|
0,6,8.8|
0,7,6.5|
1,0,6.3|
1,1,7.1|
1,2,3.9|
1,3,0.94|
1,4,6.3|
1,5,4.6|
1,6,4.9|
1,7,3.8|
2,0,2.4|
2,1,8.2|
2,2,1.6|
2,3,1.3|
2,4,0.14|
2,5,5.7|
2,6,6.4|
2,7,0.62|
3,0,1.6|
3,1,3.7|
3,2,2.6|
3,3,6.1|
3,4,0.69|
3,5,3.9|
3,6,7.2|
3,7,8.8|
4,0,0.65|
4,1,6.7|
4,2,3.5|
4,3,4.1|
4,4,4.7|
4,5,0.6|
4,6,6.4|
4,7,1.8|
5,0,9.8|
5,1,5.8|
5,2,8.7|
5,3,2|
5,4,7.6|
5,5,9.7|
5,6,3.8|
5,7,5.8|
6,0,3|
6,1,9.5|
6,2,6.7|
6,3,8.3|
6,4,6.9|
6,5,3.5|
6,6,3.8|
6,7,0.0072|
7,0,8|
7,1,9.8|
7,2,1.1|
7,3,6.9|
7,4,7.2|
7,5,9.3|
7,6,6.1|
7,7,1.4|
];
constraint_x8_y8=[
0,0,9.2|
0,1,1.4|
0,2,0.71|
0,3,0.35|
0,4,8.8|
0,5,3.1|
0,6,9.5|
0,7,3.3|
1,0,3.4|
1,1,5.6|
1,2,8.3|
1,3,3.4|
1,4,0.44|
1,5,1.5|
1,6,1.1|
1,7,3.5|
2,0,3.4|
2,1,1.9|
2,2,2.4|
2,3,9.7|
2,4,6.5|
2,5,0.33|
2,6,6.5|
2,7,0.29|
3,0,5.1|
3,1,0.79|
3,2,3.6|
3,3,7.7|
3,4,4|
3,5,9.8|
3,6,6|
3,7,8.6|
4,0,5.8|
4,1,5.8|
4,2,2.1|
4,3,8.4|
4,4,0.92|
4,5,5.4|
4,6,0.28|
4,7,0.18|
5,0,1|
5,1,6.9|
5,2,9|
5,3,0.82|
5,4,5.9|
5,5,0.16|
5,6,2.5|
5,7,4|
6,0,3.4|
6,1,2.3|
6,2,5.5|
6,3,5.9|
6,4,5.2|
6,5,5.9|
6,6,8.1|
6,7,5.6|
7,0,0.64|
7,1,9|
7,2,3.1|
7,3,5.3|
7,4,6.8|
7,5,8.6|
7,6,7.7|
7,7,0.67|
];
constraint_x9_y9=[
0,0,5.5|
0,1,4.5|
0,2,8.7|
0,3,2.1|
0,4,0.43|
0,5,2.3|
0,6,3.7|
0,7,8.9|
1,0,7.2|
1,1,2|
1,2,6.6|
1,3,4.7|
1,4,3.4|
1,5,7.1|
1,6,1.2|
1,7,9.1|
2,0,0.17|
2,1,6.4|
2,2,0.17|
2,3,2.6|
2,4,0.36|
2,5,1.1|
2,6,2.4|
2,7,6.8|
3,0,8.2|
3,1,1.6|
3,2,0.53|
3,3,7.8|
3,4,1.4|
3,5,7.3|
3,6,2.1|
3,7,8.8|
4,0,4|
4,1,9.3|
4,2,9.1|
4,3,0.15|
4,4,2.7|
4,5,9.9|
4,6,2.6|
4,7,5.4|
5,0,6.9|
5,1,3.3|
5,2,0.68|
5,3,3.2|
5,4,4.1|
5,5,0.06|
5,6,7|
5,7,9.2|
6,0,2.7|
6,1,2.4|
6,2,1.6|
6,3,7.8|
6,4,2.1|
6,5,0.078|
6,6,7.3|
6,7,7.6|
7,0,5.1|
7,1,7.3|
7,2,8.9|
7,3,3.9|
7,4,6|
7,5,7.8|
7,6,2.8|
7,7,6.5|
];
initial_distribution_y1=[0.025,0.15,0.16,0.15,0.19,0.13,0.16,0.024];
initial_distribution_y2=[0.1,0.2,0.0074,0.2,0.21,0.19,0.075,0.02];
initial_distribution_y3=[0.16,0.09,0.087,0.13,0.068,0.15,0.048,0.27];
initial_distribution_y4=[0.27,0.037,0.14,0.028,0.15,0.19,0.14,0.048];
initial_distribution_y5=[0.15,0.14,0.09,0.26,0.1,0.082,0.018,0.16];
initial_distribution_y6=[0.33,0.071,0.11,0.017,0.3,0.13,0.015,0.02];
initial_distribution_y7=[0.13,0.2,0.069,0.12,0.1,0.21,0.15,0.028];
initial_distribution_y8=[0.02,0.13,0.026,0.12,0.21,0.19,0.11,0.2];
initial_distribution_y9=[0.0034,0.18,0.13,0.18,0.042,0.2,0.1,0.17];
transition_y1=[
0.22,0.18,0.13,0.19,0.017,0.11,0.11,0.048|
0.18,0.14,0.12,0.085,0.23,0.082,0.044,0.13|
0.045,0.21,0.003,0.17,0.21,0.097,0.15,0.12|
0.13,0.16,0.12,0.067,0.087,0.2,0.18,0.057|
0.054,0.19,0.21,0.038,0.18,0.083,0.23,0.013|
0.087,0.14,0.13,0.19,0.12,0.2,0.12,0.0092|
0.099,0.17,0.13,0.24,0.16,0.074,0.096,0.034|
0.14,0.18,0.13,0.13,0.017,0.18,0.042,0.17|
];
transition_y2=[
0.042,0.22,0.25,0.13,0.049,0.0058,0.075,0.23|
0.17,0.25,0.17,0.017,0.015,0.18,0.088,0.11|
0.21,0.24,0.2,0.14,0.043,0.083,0.071,0.0085|
0.12,0.16,0.15,0.18,0.19,0.076,0.067,0.054|
0.051,0.042,0.068,0.16,0.16,0.23,0.033,0.25|
0.099,0.12,0.11,0.26,0.12,0.18,0.075,0.031|
0.018,0.19,0.0091,0.14,0.14,0.15,0.2,0.16|
0.12,0.12,0.15,0.084,0.22,0.19,0.071,0.039|
];
transition_y3=[
0.072,0.19,0.094,0.12,0.19,0.019,0.083,0.24|
0.14,0.041,0.15,0.19,0.099,0.17,0.1,0.096|
0.023,0.12,0.13,0.23,0.027,0.22,0.16,0.09|
0.083,0.007,0.038,0.31,0.052,0.019,0.25,0.24|
0.04,0.19,0.096,0.053,0.13,0.16,0.19,0.14|
0.0076,0.11,0.2,0.057,0.11,0.23,0.0069,0.27|
0.19,0.09,0.098,0.18,0.11,0.14,0.07,0.12|
0.21,0.044,0.12,0.11,0.079,0.058,0.14,0.24|
];
transition_y4=[
0.085,0.15,0.21,0.011,0.091,0.13,0.1,0.21|
0.1,0.2,0.027,0.095,0.13,0.19,0.17,0.088|
0.16,0.017,0.032,0.15,0.12,0.15,0.2,0.17|
0.21,0.085,0.21,0.17,0.11,0.046,0.14,0.02|
0.25,0.17,0.21,0.049,0.12,0.11,0.026,0.061|
0.09,0.21,0.064,0.12,0.21,0.086,0.01,0.21|
0.053,0.29,0.34,0.13,0.059,0.04,0.039,0.051|
0.05,0.22,0.25,0.097,0.18,0.032,0.12,0.048|
];
transition_y5=[
0.087,0.21,0.074,0.13,0.23,0.064,0.091,0.11|
0.18,0.074,0.084,0.084,0.11,0.092,0.16,0.23|
0.13,0.17,0.15,0.089,0.12,0.2,0.033,0.11|
0.034,0.053,0.2,0.23,0.21,0.012,0.2,0.055|
0.096,0.077,0.068,0.27,0.28,0.017,0.17,0.02|
0.072,0.19,0.045,0.24,0.051,0.094,0.21,0.1|
0.2,0.03,0.043,0.22,0.27,0.12,0.089,0.028|
0.15,0.12,0.033,0.22,0.23,0.21,0.023,0.0042|
];
transition_y6=[
0.022,0.21,0.032,0.2,0.2,0.092,0.17,0.077|
0.15,0.2,0.077,0.23,0.0035,0.1,0.062,0.18|
0.17,0.01,0.17,0.18,0.052,0.13,0.21,0.077|
0.014,0.22,0.21,0.093,0.087,0.13,0.12,0.13|
0.14,0.18,0.058,0.21,0.023,0.29,0.027,0.072|
0.018,0.088,0.25,0.23,0.13,0.03,0.23,0.017|
0.17,0.11,0.025,0.12,0.074,0.16,0.18,0.16|
0.055,0.086,0.081,0.21,0.04,0.24,0.11,0.19|
];
transition_y7=[
0.1,0.14,0.029,0.16,0.15,0.18,0.03,0.2|
0.15,0.11,0.05,0.16,0.15,0.063,0.16,0.15|
0.32,0.27,0.1,0.085,0.006,0.12,0.078,0.022|
0.11,0.21,0.047,0.19,0.089,0.0077,0.17,0.17|
0.17,0.13,0.12,0.036,0.086,0.14,0.17,0.15|
0.065,0.22,0.014,0.12,0.086,0.16,0.12,0.21|
0.1,0.089,0.16,0.14,0.16,0.14,0.11,0.099|
0.0082,0.12,0.17,0.18,0.17,0.13,0.033,0.19|
];
transition_y8=[
0.11,0.18,0.027,0.015,0.2,0.17,0.16,0.13|
0.09,0.2,0.087,0.14,0.0046,0.2,0.18,0.094|
0.22,0.13,0.14,0.15,0.03,0.1,0.17,0.062|
0.088,0.048,0.084,0.21,0.21,0.22,0.12,0.025|
0.2,0.085,0.093,0.091,0.24,0.05,0.15,0.088|
0.17,0.06,0.19,0.044,0.18,0.079,0.051,0.23|
0.006,0.13,0.15,0.19,0.2,0.043,0.19,0.099|
0.058,0.0084,0.06,0.18,0.24,0.12,0.26,0.079|
];
transition_y9=[
0.15,0.12,0.18,0.076,0.058,0.19,0.11,0.12|
0.044,0.18,0.18,0.17,0.13,0.12,0.091,0.082|
0.2,0.031,0.077,0.27,0.13,0.13,0.15,0.0096|
0.014,0.13,0.1,0.15,0.21,0.09,0.27,0.027|
0.16,0.1,0.15,0.18,0.098,0.065,0.15,0.091|
0.22,0.13,0.034,0.067,0.21,0.15,0.085,0.11|
0.096,0.24,0.15,0.033,0.2,0.18,0.0035,0.095|
0.12,0.17,0.2,0.14,0.11,0.16,0.084,0.022|
];
